# ECKART GNIC GDV SMILE HPCS2 OPT 

Acetylene 

0 1
C#C
 
