# GNIC GDV HPCS2 ONEDIH OPT  

glycine 

0 1
  7   -1.898437    0.068253   -0.374248
  6   -0.854340    0.480220    0.547132
  6    0.470764   -0.055445    0.126354
  8    0.647734   -1.291622    0.035656
  8    1.491702    0.816387   -0.206775
  1   -1.941545   -0.973619   -0.389192
  1   -1.645367    0.388336   -1.334010
  1   -0.811014    1.586177    0.580900
  1   -1.099313    0.119240    1.565384
  1    2.385366    0.469883   -0.524732

