#p hf/sto-3g opt=readallgic output=pickett

benzene MATRIX readallgic example

0 1
H      -0.00000000      2.47150000      0.00000000
C      -0.00000000      1.39160000      0.00000000
C      -1.20516100      0.69580000      0.00000000
H      -2.14038200      1.23575000      0.00000000
C      -1.20516100     -0.69580000      0.00000000
H      -2.14038200     -1.23575000      0.00000000
C       0.00000000     -1.39160000     -0.00000000
H       0.00000000     -2.47150000     -0.00000000
C       1.20516100     -0.69580000     -0.00000000
H       2.14038200     -1.23575000     -0.00000000
C       1.20516100      0.69580000     -0.00000000
H       2.14038200      1.23575000     -0.00000000

A1gStr001 = 0.408248290464*(R(1,2))+0.408248290464*(R(7,8))+0.408248290464*(R(9,10))+0.408248290464*(R(11,12))+0.408248290464*(R(3,4))+0.408248290464*(R(5,6))
A1gStr002 = 0.408248291092*(R(2,3))+0.408248290273*(R(2,11))+0.408248291748*(R(3,5))+0.408248289781*(R(5,7))+0.408248290764*(R(7,9))+0.408248289125*(R(9,11))
A1gStr003 = -0.298575400572*(R(2,3))+0.0908707442463*(R(2,11))-0.610132400824*(R(3,5))+0.324538468061*(R(5,7))-0.14279692682*(R(7,9))+0.636095521064*(R(9,11))
E2gStr001(Frozen) = 0.57735026919*(R(1,2))+0.57735026919*(R(7,8))-0.288675134595*(R(9,10))-0.288675134595*(R(11,12))-0.288675134595*(R(3,4))-0.288675134595*(R(5,6))
E2gStr002(Frozen) = 0.5*(R(9,10))-0.5*(R(11,12))+0.5*(R(3,4))-0.5*(R(5,6))
E2gStr003(Frozen) = 0.411792501185*(R(2,3))-0.510264593415*(R(2,11))-0.289261793623*(R(3,5))-0.399483486744*(R(5,7))+0.485646568131*(R(7,9))+0.301570804465*(R(9,11))
E2gStr004(Frozen) = -0.286440118827*(R(2,3))-0.285367322985*(R(2,11))+0.594336465982*(R(3,5))-0.291804186826*(R(5,7))-0.290731361145*(R(7,9))+0.560006523802*(R(9,11))
E2gStr005(Frozen) = -0.540407711234*(R(2,3))+0.4556747994*(R(2,11))-0.0178880639123*(R(3,5))-0.4556747994*(R(5,7))+0.540407711234*(R(7,9))+0.0178880639123*(R(9,11))
B1uStr001(Frozen) = 0.447799690628*(R(2,3))+0.525006527769*(R(2,11))-0.154413674501*(R(3,5))-0.525006527769*(R(5,7))-0.447799690628*(R(7,9))+0.154413674501*(R(9,11))
B2uStr001(Frozen) = 0.408248290464*(R(1,2))-0.408248290464*(R(7,8))+0.408248290464*(R(9,10))-0.408248290464*(R(11,12))-0.408248290464*(R(3,4))+0.408248290464*(R(5,6))
E1uStr001(Frozen) = 0.57735026919*(R(1,2))-0.57735026919*(R(7,8))-0.288675134595*(R(9,10))+0.288675134595*(R(11,12))+0.288675134595*(R(3,4))-0.288675134595*(R(5,6))
E1uStr002(Frozen) = 0.5*(R(9,10))+0.5*(R(11,12))-0.5*(R(3,4))-0.5*(R(5,6))
A2gBend001(Frozen) = 0.288675134595*(A(1,2,3))-0.288675134595*(A(1,2,11))-0.288675134595*(A(4,3,2))+0.288675134595*(A(4,3,5))-0.288675134595*(A(6,5,3))+0.288675134595*(A(6,5,7))-0.288675134595*(A(8,7,5))+0.288675134595*(A(8,7,9))-0.288675134595*(A(10,9,7))+0.288675134595*(A(10,9,11))-0.288675134595*(A(12,11,9))+0.288675134595*(A(12,11,2))
E2gBend001(Frozen) = 0.408248290464*(A(1,2,3))-0.408248290464*(A(1,2,11))+0.204124145232*(A(4,3,2))-0.204124145232*(A(4,3,5))+0.204124145232*(A(6,5,3))-0.204124145232*(A(6,5,7))-0.408248290464*(A(8,7,5))+0.408248290464*(A(8,7,9))+0.204124145232*(A(10,9,7))-0.204124145232*(A(10,9,11))+0.204124145232*(A(12,11,9))-0.204124145232*(A(12,11,2))
E2gBend002(Frozen) = 0.353553390593*(A(4,3,2))-0.353553390593*(A(4,3,5))-0.353553390593*(A(6,5,3))+0.353553390593*(A(6,5,7))+0.353553390593*(A(10,9,7))-0.353553390593*(A(10,9,11))-0.353553390593*(A(12,11,9))+0.353553390593*(A(12,11,2))
B1uBend001(Frozen) = 0.288675134595*(A(1,2,3))-0.288675134595*(A(1,2,11))+0.288675134595*(A(4,3,2))-0.288675134595*(A(4,3,5))-0.288675134595*(A(6,5,3))+0.288675134595*(A(6,5,7))+0.288675134595*(A(8,7,5))-0.288675134595*(A(8,7,9))-0.288675134595*(A(10,9,7))+0.288675134595*(A(10,9,11))+0.288675134595*(A(12,11,9))-0.288675134595*(A(12,11,2))
E1uBend001(Frozen) = 0.408248290464*(A(1,2,3))-0.408248290464*(A(1,2,11))-0.204124145232*(A(4,3,2))+0.204124145232*(A(4,3,5))+0.204124145232*(A(6,5,3))-0.204124145232*(A(6,5,7))+0.408248290464*(A(8,7,5))-0.408248290464*(A(8,7,9))+0.204124145232*(A(10,9,7))-0.204124145232*(A(10,9,11))-0.204124145232*(A(12,11,9))+0.204124145232*(A(12,11,2))
E1uBend002(Frozen) = 0.353553390593*(A(4,3,2))-0.353553390593*(A(4,3,5))+0.353553390593*(A(6,5,3))-0.353553390593*(A(6,5,7))-0.353553390593*(A(10,9,7))+0.353553390593*(A(10,9,11))-0.353553390593*(A(12,11,9))+0.353553390593*(A(12,11,2))
E2gCyBe001(Frozen) = 0.57735026919*(A(5,7,9))-0.288675134595*(A(7,9,11))-0.288675134595*(A(9,11,2))+0.57735026919*(A(11,2,3))-0.288675134595*(A(2,3,5))-0.288675134595*(A(3,5,7))
E2gCyBe002(Frozen) = 0.5*(A(7,9,11))-0.5*(A(9,11,2))+0.5*(A(2,3,5))-0.5*(A(3,5,7))
B2uCyBe001(Frozen) = 0.408248290464*(A(5,7,9))-0.408248290464*(A(7,9,11))+0.408248290464*(A(9,11,2))-0.408248290464*(A(11,2,3))+0.408248290464*(A(2,3,5))-0.408248290464*(A(3,5,7))
B2gRPck001(Frozen) = 0.408248290464*(D(2,3,5,7))-0.408248290464*(D(3,5,7,9))+0.408248290464*(D(5,7,9,11))+0.408248290464*(D(7,9,11,2))-0.408248290464*(D(9,11,2,3))+0.408248290464*(D(11,2,3,5))
E2uRPck001(Frozen) = 0.57735026919*(D(2,3,5,7))-0.288675134595*(D(3,5,7,9))-0.288675134595*(D(5,7,9,11))-0.57735026919*(D(7,9,11,2))+0.288675134595*(D(9,11,2,3))+0.288675134595*(D(11,2,3,5))
E2uRPck002(Frozen) = 0.5*(D(3,5,7,9))-0.5*(D(5,7,9,11))-0.5*(D(9,11,2,3))+0.5*(D(11,2,3,5))
B1gOuPl001(Frozen) = 0.408248290464*(U(2,1,3,11))-0.408248290464*(U(3,2,4,5))+0.408248290464*(U(5,3,6,7))-0.408248290464*(U(7,5,8,9))+0.408248290464*(U(9,7,10,11))-0.408248290464*(U(11,2,9,12))
E1gOuPl001(Frozen) = 0.57735026919*(U(2,1,3,11))+0.288675134595*(U(3,2,4,5))-0.288675134595*(U(5,3,6,7))-0.57735026919*(U(7,5,8,9))-0.288675134595*(U(9,7,10,11))+0.288675134595*(U(11,2,9,12))
E1gOuPl002(Frozen) = 0.5*(U(3,2,4,5))+0.5*(U(5,3,6,7))-0.5*(U(9,7,10,11))-0.5*(U(11,2,9,12))
A2uOuPl001(Frozen) = 0.408248290464*(U(2,1,3,11))+0.408248290464*(U(3,2,4,5))+0.408248290464*(U(5,3,6,7))+0.408248290464*(U(7,5,8,9))+0.408248290464*(U(9,7,10,11))+0.408248290464*(U(11,2,9,12))
E2uOuPl001(Frozen) = 0.57735026919*(U(2,1,3,11))-0.288675134595*(U(3,2,4,5))-0.288675134595*(U(5,3,6,7))+0.57735026919*(U(7,5,8,9))-0.288675134595*(U(9,7,10,11))-0.288675134595*(U(11,2,9,12))
E2uOuPl002(Frozen) = 0.5*(U(3,2,4,5))-0.5*(U(5,3,6,7))+0.5*(U(9,7,10,11))-0.5*(U(11,2,9,12))
