#p hf/sto-3g opt=readallgic output=pickett

SF6 octahedral MATRIX readallgic example

0 1
S       0.00000000      0.00000000      0.00000000
F       1.56000000      0.00000000      0.00000000
F      -1.56000000      0.00000000      0.00000000
F       0.00000000      1.56000000      0.00000000
F       0.00000000     -1.56000000      0.00000000
F       0.00000000      0.00000000      1.56000000
F       0.00000000      0.00000000     -1.56000000

A1gStr001 = 0.408248290464*(R(1,4))+0.408248290464*(R(1,5))+0.408248290464*(R(1,6))+0.408248290464*(R(1,7))+0.408248290464*(R(1,2))+0.408248290464*(R(1,3))
EgStr001(Frozen) = -0.288675134595*(R(1,4))-0.288675134595*(R(1,5))+0.57735026919*(R(1,6))+0.57735026919*(R(1,7))-0.288675134595*(R(1,2))-0.288675134595*(R(1,3))
EgStr002(Frozen) = 0.5*(R(1,4))+0.5*(R(1,5))-0.5*(R(1,2))-0.5*(R(1,3))
T1uStr001(Frozen) = -0.707106781187*(R(1,4))+0.707106781187*(R(1,5))
T1uStr002(Frozen) = 0.707106781187*(R(1,6))-0.707106781187*(R(1,7))
T1uStr003(Frozen) = 0.707106781187*(R(1,2))-0.707106781187*(R(1,3))
T2gBend001(Frozen) = -0.49263656738*(A(2,1,6))+0.49263656738*(A(2,1,7))+0.49263656738*(A(3,1,6))-0.49263656738*(A(3,1,7))-0.0854939324166*(A(4,1,6))+0.0854939324166*(A(4,1,7))+0.0854939324166*(A(5,1,6))-0.0854939324166*(A(5,1,7))
T2gBend002(Frozen) = 0.0854939324166*(A(2,1,6))-0.0854939324166*(A(2,1,7))-0.0854939324166*(A(3,1,6))+0.0854939324166*(A(3,1,7))-0.49263656738*(A(4,1,6))+0.49263656738*(A(4,1,7))+0.49263656738*(A(5,1,6))-0.49263656738*(A(5,1,7))
T2gBend003(Frozen) = -0.5*(A(2,1,5))-0.5*(A(3,1,4))+0.5*(A(2,1,4))+0.5*(A(3,1,5))
T1uBend001(Frozen) = -0.0288735671022*(A(2,1,5))-0.367400179049*(A(2,1,6))+0.338526611947*(A(2,1,7))+0.0288735671022*(A(3,1,4))-0.338526611947*(A(3,1,6))+0.367400179049*(A(3,1,7))-0.338526611947*(A(4,1,6))+0.367400179049*(A(4,1,7))-0.367400179049*(A(5,1,6))+0.338526611947*(A(5,1,7))
T1uBend002(Frozen) = -0.25*(A(2,1,6))-0.25*(A(2,1,7))+0.25*(A(3,1,6))+0.25*(A(3,1,7))-0.25*(A(4,1,6))-0.25*(A(4,1,7))+0.25*(A(5,1,6))+0.25*(A(5,1,7))-0.5*(A(2,1,4))+0.5*(A(3,1,5))
T1uBend003(Frozen) = 0.499165620934*(A(2,1,5))+0.229166115372*(A(2,1,6))+0.269999505562*(A(2,1,7))-0.499165620934*(A(3,1,4))-0.269999505562*(A(3,1,6))-0.229166115372*(A(3,1,7))-0.269999505562*(A(4,1,6))-0.229166115372*(A(4,1,7))+0.229166115372*(A(5,1,6))+0.269999505562*(A(5,1,7))
T2uBend001(Frozen) = -0.124698674829*(A(2,1,5))+0.404730879335*(A(2,1,6))-0.280032204506*(A(2,1,7))+0.124698674829*(A(3,1,4))+0.280032204506*(A(3,1,6))-0.404730879335*(A(3,1,7))-0.404730879335*(A(4,1,6))+0.280032204506*(A(4,1,7))-0.280032204506*(A(5,1,6))+0.404730879335*(A(5,1,7))
T2uBend002(Frozen) = 0.48420062009*(A(2,1,5))-0.153925031469*(A(2,1,6))-0.330275588622*(A(2,1,7))-0.48420062009*(A(3,1,4))+0.330275588622*(A(3,1,6))+0.153925031469*(A(3,1,7))+0.153925031469*(A(4,1,6))+0.330275588622*(A(4,1,7))-0.330275588622*(A(5,1,6))-0.153925031469*(A(5,1,7))
T2uBend003(Frozen) = 0.25*(A(2,1,6))+0.25*(A(2,1,7))-0.25*(A(3,1,6))-0.25*(A(3,1,7))+0.25*(A(4,1,6))+0.25*(A(4,1,7))-0.25*(A(5,1,6))-0.25*(A(5,1,7))-0.5*(A(2,1,4))+0.5*(A(3,1,5))
