#p hf/sto-3g opt=readallgic output=pickett

cubane MATRIX readallgic example

0 1
C       0.78290000      0.78290000      0.78290000
C      -0.78290000      0.78290000      0.78290000
C      -0.78290000      0.78290000     -0.78290000
C       0.78290000      0.78290000     -0.78290000
C       0.78290000     -0.78290000      0.78290000
C       0.78290000     -0.78290000     -0.78290000
C      -0.78290000     -0.78290000     -0.78290000
C      -0.78290000     -0.78290000      0.78290000
H       1.40970000      1.40970000      1.40970000
H      -1.40970000      1.40970000      1.40970000
H      -1.40970000      1.40970000     -1.40970000
H       1.40970000      1.40970000     -1.40970000
H       1.40970000     -1.40970000      1.40970000
H       1.40970000     -1.40970000     -1.40970000
H      -1.40970000     -1.40970000     -1.40970000
H      -1.40970000     -1.40970000      1.40970000

A1gStr001 = 0.353553390593*(R(2,10))+0.353553390593*(R(3,11))+0.353553390593*(R(4,12))+0.353553390593*(R(5,13))+0.353553390593*(R(6,14))+0.353553390593*(R(7,15))+0.353553390593*(R(8,16))+0.353553390593*(R(1,9))
A1gStr002 = 0.288675134595*(R(1,4))+0.288675134595*(R(7,8))+0.288675134595*(R(2,3))+0.288675134595*(R(2,8))+0.288675134595*(R(3,4))+0.288675134595*(R(3,7))+0.288675134595*(R(4,6))+0.288675134595*(R(5,6))+0.288675134595*(R(5,8))+0.288675134595*(R(6,7))+0.288675134595*(R(1,2))+0.288675134595*(R(1,5))
EgStr001(Frozen) = 0.408248290464*(R(1,4))+0.408248290464*(R(7,8))+0.408248290464*(R(2,3))-0.204124145232*(R(2,8))-0.204124145232*(R(3,4))-0.204124145232*(R(3,7))-0.204124145232*(R(4,6))+0.408248290464*(R(5,6))-0.204124145232*(R(5,8))-0.204124145232*(R(6,7))-0.204124145232*(R(1,2))-0.204124145232*(R(1,5))
EgStr002(Frozen) = 0.353553390593*(R(2,8))-0.353553390593*(R(3,4))+0.353553390593*(R(3,7))+0.353553390593*(R(4,6))-0.353553390593*(R(5,8))-0.353553390593*(R(6,7))-0.353553390593*(R(1,2))+0.353553390593*(R(1,5))
T2gStr001(Frozen) = 0.612372435696*(R(2,10))-0.204124145232*(R(3,11))-0.204124145232*(R(4,12))-0.204124145232*(R(5,13))+0.612372435696*(R(6,14))-0.204124145232*(R(7,15))-0.204124145232*(R(8,16))-0.204124145232*(R(1,9))
T2gStr002(Frozen) = 0.57735026919*(R(3,11))-0.288675134595*(R(4,12))+0.57735026919*(R(5,13))-0.288675134595*(R(7,15))-0.288675134595*(R(8,16))-0.288675134595*(R(1,9))
T2gStr003(Frozen) = 0.5*(R(4,12))-0.5*(R(7,15))+0.5*(R(8,16))-0.5*(R(1,9))
T2gStr004(Frozen) = 0.5*(R(1,4))+0.5*(R(7,8))-0.5*(R(2,3))-0.5*(R(5,6))
T2gStr005(Frozen) = 0.5*(R(2,8))-0.5*(R(3,7))+0.5*(R(4,6))-0.5*(R(1,5))
T2gStr006(Frozen) = 0.5*(R(3,4))+0.5*(R(5,8))-0.5*(R(6,7))-0.5*(R(1,2))
A2uStr001(Frozen) = 0.353553390593*(R(2,10))-0.353553390593*(R(3,11))+0.353553390593*(R(4,12))+0.353553390593*(R(5,13))-0.353553390593*(R(6,14))+0.353553390593*(R(7,15))-0.353553390593*(R(8,16))-0.353553390593*(R(1,9))
T1uStr001(Frozen) = 0.612372435696*(R(2,10))+0.204124145232*(R(3,11))-0.204124145232*(R(4,12))-0.204124145232*(R(5,13))-0.612372435696*(R(6,14))-0.204124145232*(R(7,15))+0.204124145232*(R(8,16))+0.204124145232*(R(1,9))
T1uStr002(Frozen) = 0.57735026919*(R(3,11))+0.288675134595*(R(4,12))-0.57735026919*(R(5,13))+0.288675134595*(R(7,15))-0.288675134595*(R(8,16))-0.288675134595*(R(1,9))
T1uStr003(Frozen) = 0.5*(R(4,12))-0.5*(R(7,15))-0.5*(R(8,16))+0.5*(R(1,9))
T1uStr004(Frozen) = 0.5*(R(1,4))-0.5*(R(7,8))-0.25*(R(2,8))+0.25*(R(3,4))-0.25*(R(3,7))+0.25*(R(4,6))-0.25*(R(5,8))-0.25*(R(6,7))+0.25*(R(1,2))+0.25*(R(1,5))
T1uStr005(Frozen) = 0.5*(R(2,3))+0.25*(R(2,8))+0.25*(R(3,4))+0.25*(R(3,7))-0.25*(R(4,6))-0.5*(R(5,6))-0.25*(R(5,8))-0.25*(R(6,7))+0.25*(R(1,2))-0.25*(R(1,5))
T1uStr006(Frozen) = 0.353553390593*(R(2,8))-0.353553390593*(R(3,4))-0.353553390593*(R(3,7))-0.353553390593*(R(4,6))+0.353553390593*(R(5,8))-0.353553390593*(R(6,7))+0.353553390593*(R(1,2))+0.353553390593*(R(1,5))
T2uStr001(Frozen) = 0.5*(R(1,4))-0.5*(R(7,8))+0.25*(R(2,8))-0.25*(R(3,4))+0.25*(R(3,7))-0.25*(R(4,6))+0.25*(R(5,8))+0.25*(R(6,7))-0.25*(R(1,2))-0.25*(R(1,5))
T2uStr002(Frozen) = 0.5*(R(2,3))-0.25*(R(2,8))-0.25*(R(3,4))-0.25*(R(3,7))+0.25*(R(4,6))-0.5*(R(5,6))+0.25*(R(5,8))+0.25*(R(6,7))-0.25*(R(1,2))+0.25*(R(1,5))
T2uStr003(Frozen) = 0.353553390593*(R(2,8))+0.353553390593*(R(3,4))-0.353553390593*(R(3,7))-0.353553390593*(R(4,6))-0.353553390593*(R(5,8))+0.353553390593*(R(6,7))-0.353553390593*(R(1,2))+0.353553390593*(R(1,5))
EgBend001(Frozen) = 0.288675134595*(A(9,1,2))-0.144337567297*(A(9,1,4))-0.144337567297*(A(9,1,5))+0.288675134595*(A(10,2,1))-0.144337567297*(A(10,2,3))-0.144337567297*(A(10,2,8))-0.144337567297*(A(11,3,2))+0.288675134595*(A(11,3,4))-0.144337567297*(A(11,3,7))-0.144337567297*(A(12,4,1))+0.288675134595*(A(12,4,3))-0.144337567297*(A(12,4,6))-0.144337567297*(A(13,5,1))-0.144337567297*(A(13,5,6))+0.288675134595*(A(13,5,8))-0.144337567297*(A(14,6,4))-0.144337567297*(A(14,6,5))+0.288675134595*(A(14,6,7))-0.144337567297*(A(15,7,3))+0.288675134595*(A(15,7,6))-0.144337567297*(A(15,7,8))-0.144337567297*(A(16,8,2))+0.288675134595*(A(16,8,5))-0.144337567297*(A(16,8,7))
EgBend002(Frozen) = 0.25*(A(9,1,4))-0.25*(A(9,1,5))+0.25*(A(10,2,3))-0.25*(A(10,2,8))+0.25*(A(11,3,2))-0.25*(A(11,3,7))+0.25*(A(12,4,1))-0.25*(A(12,4,6))-0.25*(A(13,5,1))+0.25*(A(13,5,6))-0.25*(A(14,6,4))+0.25*(A(14,6,5))-0.25*(A(15,7,3))+0.25*(A(15,7,8))-0.25*(A(16,8,2))+0.25*(A(16,8,7))
T1gBend001(Frozen) = 0.353553390593*(A(9,1,2))-0.176776695297*(A(9,1,4))-0.176776695297*(A(9,1,5))-0.353553390593*(A(10,2,1))+0.176776695297*(A(10,2,3))+0.176776695297*(A(10,2,8))-0.176776695297*(A(11,3,2))+0.176776695297*(A(11,3,7))+0.176776695297*(A(12,4,1))-0.176776695297*(A(12,4,6))+0.176776695297*(A(13,5,1))-0.176776695297*(A(13,5,6))+0.176776695297*(A(14,6,4))+0.176776695297*(A(14,6,5))-0.353553390593*(A(14,6,7))-0.176776695297*(A(15,7,3))+0.353553390593*(A(15,7,6))-0.176776695297*(A(15,7,8))-0.176776695297*(A(16,8,2))+0.176776695297*(A(16,8,7))
T1gBend002(Frozen) = 0.306186217848*(A(9,1,4))-0.306186217848*(A(9,1,5))+0.102062072616*(A(10,2,3))-0.102062072616*(A(10,2,8))-0.102062072616*(A(11,3,2))-0.204124145232*(A(11,3,4))+0.306186217848*(A(11,3,7))-0.306186217848*(A(12,4,1))+0.204124145232*(A(12,4,3))+0.102062072616*(A(12,4,6))+0.306186217848*(A(13,5,1))-0.102062072616*(A(13,5,6))-0.204124145232*(A(13,5,8))-0.102062072616*(A(14,6,4))+0.102062072616*(A(14,6,5))-0.306186217848*(A(15,7,3))+0.306186217848*(A(15,7,8))+0.102062072616*(A(16,8,2))+0.204124145232*(A(16,8,5))-0.306186217848*(A(16,8,7))
T1gBend003(Frozen) = 0.288675134595*(A(10,2,3))-0.288675134595*(A(10,2,8))-0.288675134595*(A(11,3,2))+0.288675134595*(A(11,3,4))-0.288675134595*(A(12,4,3))+0.288675134595*(A(12,4,6))-0.288675134595*(A(13,5,6))+0.288675134595*(A(13,5,8))-0.288675134595*(A(14,6,4))+0.288675134595*(A(14,6,5))+0.288675134595*(A(16,8,2))-0.288675134595*(A(16,8,5))
T2gBend001(Frozen) = 0.353553390593*(A(9,1,2))-0.176776695297*(A(9,1,4))-0.176776695297*(A(9,1,5))+0.117851130198*(A(10,2,1))-0.0589255650989*(A(10,2,3))-0.0589255650989*(A(10,2,8))+0.294627825494*(A(11,3,2))-0.235702260396*(A(11,3,4))-0.0589255650989*(A(11,3,7))-0.0589255650989*(A(12,4,1))-0.235702260396*(A(12,4,3))+0.294627825494*(A(12,4,6))-0.0589255650989*(A(13,5,1))+0.294627825494*(A(13,5,6))-0.235702260396*(A(13,5,8))-0.0589255650989*(A(14,6,4))-0.0589255650989*(A(14,6,5))+0.117851130198*(A(14,6,7))-0.176776695297*(A(15,7,3))+0.353553390593*(A(15,7,6))-0.176776695297*(A(15,7,8))+0.294627825494*(A(16,8,2))-0.235702260396*(A(16,8,5))-0.0589255650989*(A(16,8,7))
T2gBend002(Frozen) = 0.306186217848*(A(9,1,4))-0.306186217848*(A(9,1,5))-0.306186217848*(A(10,2,3))+0.306186217848*(A(10,2,8))-0.102062072616*(A(11,3,2))+0.204124145232*(A(11,3,4))-0.102062072616*(A(11,3,7))+0.102062072616*(A(12,4,1))-0.204124145232*(A(12,4,3))+0.102062072616*(A(12,4,6))-0.102062072616*(A(13,5,1))-0.102062072616*(A(13,5,6))+0.204124145232*(A(13,5,8))+0.306186217848*(A(14,6,4))-0.306186217848*(A(14,6,5))-0.306186217848*(A(15,7,3))+0.306186217848*(A(15,7,8))+0.102062072616*(A(16,8,2))-0.204124145232*(A(16,8,5))+0.102062072616*(A(16,8,7))
T2gBend003(Frozen) = 0.333333333333*(A(10,2,1))-0.166666666667*(A(10,2,3))-0.166666666667*(A(10,2,8))-0.166666666667*(A(11,3,2))-0.166666666667*(A(11,3,4))+0.333333333333*(A(11,3,7))+0.333333333333*(A(12,4,1))-0.166666666667*(A(12,4,3))-0.166666666667*(A(12,4,6))+0.333333333333*(A(13,5,1))-0.166666666667*(A(13,5,6))-0.166666666667*(A(13,5,8))-0.166666666667*(A(14,6,4))-0.166666666667*(A(14,6,5))+0.333333333333*(A(14,6,7))-0.166666666667*(A(16,8,2))-0.166666666667*(A(16,8,5))+0.333333333333*(A(16,8,7))
EuBend001(Frozen) = 0.288675134595*(A(9,1,2))-0.144337567297*(A(9,1,4))-0.144337567297*(A(9,1,5))-0.288675134595*(A(10,2,1))+0.144337567297*(A(10,2,3))+0.144337567297*(A(10,2,8))-0.144337567297*(A(11,3,2))+0.288675134595*(A(11,3,4))-0.144337567297*(A(11,3,7))+0.144337567297*(A(12,4,1))-0.288675134595*(A(12,4,3))+0.144337567297*(A(12,4,6))+0.144337567297*(A(13,5,1))+0.144337567297*(A(13,5,6))-0.288675134595*(A(13,5,8))-0.144337567297*(A(14,6,4))-0.144337567297*(A(14,6,5))+0.288675134595*(A(14,6,7))+0.144337567297*(A(15,7,3))-0.288675134595*(A(15,7,6))+0.144337567297*(A(15,7,8))-0.144337567297*(A(16,8,2))+0.288675134595*(A(16,8,5))-0.144337567297*(A(16,8,7))
EuBend002(Frozen) = 0.25*(A(9,1,4))-0.25*(A(9,1,5))-0.25*(A(10,2,3))+0.25*(A(10,2,8))+0.25*(A(11,3,2))-0.25*(A(11,3,7))-0.25*(A(12,4,1))+0.25*(A(12,4,6))+0.25*(A(13,5,1))-0.25*(A(13,5,6))-0.25*(A(14,6,4))+0.25*(A(14,6,5))+0.25*(A(15,7,3))-0.25*(A(15,7,8))-0.25*(A(16,8,2))+0.25*(A(16,8,7))
T1uBend001(Frozen) = 0.353553390593*(A(9,1,2))-0.176776695297*(A(9,1,4))-0.176776695297*(A(9,1,5))-0.117851130198*(A(10,2,1))+0.0589255650989*(A(10,2,3))+0.0589255650989*(A(10,2,8))+0.294627825494*(A(11,3,2))-0.235702260396*(A(11,3,4))-0.0589255650989*(A(11,3,7))+0.0589255650989*(A(12,4,1))+0.235702260396*(A(12,4,3))-0.294627825494*(A(12,4,6))+0.0589255650989*(A(13,5,1))-0.294627825494*(A(13,5,6))+0.235702260396*(A(13,5,8))-0.0589255650989*(A(14,6,4))-0.0589255650989*(A(14,6,5))+0.117851130198*(A(14,6,7))+0.176776695297*(A(15,7,3))-0.353553390593*(A(15,7,6))+0.176776695297*(A(15,7,8))+0.294627825494*(A(16,8,2))-0.235702260396*(A(16,8,5))-0.0589255650989*(A(16,8,7))
T1uBend002(Frozen) = 0.306186217848*(A(9,1,4))-0.306186217848*(A(9,1,5))+0.306186217848*(A(10,2,3))-0.306186217848*(A(10,2,8))-0.102062072616*(A(11,3,2))+0.204124145232*(A(11,3,4))-0.102062072616*(A(11,3,7))-0.102062072616*(A(12,4,1))+0.204124145232*(A(12,4,3))-0.102062072616*(A(12,4,6))+0.102062072616*(A(13,5,1))+0.102062072616*(A(13,5,6))-0.204124145232*(A(13,5,8))+0.306186217848*(A(14,6,4))-0.306186217848*(A(14,6,5))+0.306186217848*(A(15,7,3))-0.306186217848*(A(15,7,8))+0.102062072616*(A(16,8,2))-0.204124145232*(A(16,8,5))+0.102062072616*(A(16,8,7))
T1uBend003(Frozen) = 0.333333333333*(A(10,2,1))-0.166666666667*(A(10,2,3))-0.166666666667*(A(10,2,8))+0.166666666667*(A(11,3,2))+0.166666666667*(A(11,3,4))-0.333333333333*(A(11,3,7))+0.333333333333*(A(12,4,1))-0.166666666667*(A(12,4,3))-0.166666666667*(A(12,4,6))+0.333333333333*(A(13,5,1))-0.166666666667*(A(13,5,6))-0.166666666667*(A(13,5,8))+0.166666666667*(A(14,6,4))+0.166666666667*(A(14,6,5))-0.333333333333*(A(14,6,7))+0.166666666667*(A(16,8,2))+0.166666666667*(A(16,8,5))-0.333333333333*(A(16,8,7))
T2uBend001(Frozen) = 0.353553390593*(A(9,1,2))-0.176776695297*(A(9,1,4))-0.176776695297*(A(9,1,5))+0.353553390593*(A(10,2,1))-0.176776695297*(A(10,2,3))-0.176776695297*(A(10,2,8))-0.176776695297*(A(11,3,2))+0.176776695297*(A(11,3,7))-0.176776695297*(A(12,4,1))+0.176776695297*(A(12,4,6))-0.176776695297*(A(13,5,1))+0.176776695297*(A(13,5,6))+0.176776695297*(A(14,6,4))+0.176776695297*(A(14,6,5))-0.353553390593*(A(14,6,7))+0.176776695297*(A(15,7,3))-0.353553390593*(A(15,7,6))+0.176776695297*(A(15,7,8))-0.176776695297*(A(16,8,2))+0.176776695297*(A(16,8,7))
T2uBend002(Frozen) = 0.306186217848*(A(9,1,4))-0.306186217848*(A(9,1,5))-0.102062072616*(A(10,2,3))+0.102062072616*(A(10,2,8))-0.102062072616*(A(11,3,2))-0.204124145232*(A(11,3,4))+0.306186217848*(A(11,3,7))+0.306186217848*(A(12,4,1))-0.204124145232*(A(12,4,3))-0.102062072616*(A(12,4,6))-0.306186217848*(A(13,5,1))+0.102062072616*(A(13,5,6))+0.204124145232*(A(13,5,8))-0.102062072616*(A(14,6,4))+0.102062072616*(A(14,6,5))+0.306186217848*(A(15,7,3))-0.306186217848*(A(15,7,8))+0.102062072616*(A(16,8,2))+0.204124145232*(A(16,8,5))-0.306186217848*(A(16,8,7))
T2uBend003(Frozen) = 0.288675134595*(A(10,2,3))-0.288675134595*(A(10,2,8))+0.288675134595*(A(11,3,2))-0.288675134595*(A(11,3,4))-0.288675134595*(A(12,4,3))+0.288675134595*(A(12,4,6))-0.288675134595*(A(13,5,6))+0.288675134595*(A(13,5,8))+0.288675134595*(A(14,6,4))-0.288675134595*(A(14,6,5))-0.288675134595*(A(16,8,2))+0.288675134595*(A(16,8,5))
A2uBtFl001(Frozen) = 0.204124145232*(D(2,1,5,6))-0.204124145232*(D(4,1,5,8))+0.204124145232*(D(4,1,2,8))+0.204124145232*(D(5,1,2,3))-0.204124145232*(D(2,1,4,6))-0.204124145232*(D(5,1,4,3))-0.204124145232*(D(1,2,3,7))-0.204124145232*(D(8,2,3,4))+0.204124145232*(D(1,2,8,7))-0.204124145232*(D(3,2,8,5))+0.204124145232*(D(2,3,4,6))+0.204124145232*(D(7,3,4,1))-0.204124145232*(D(2,3,7,6))+0.204124145232*(D(4,3,7,8))-0.204124145232*(D(1,4,6,7))+0.204124145232*(D(3,4,6,5))-0.204124145232*(D(1,5,8,7))-0.204124145232*(D(4,6,7,8))+0.204124145232*(D(8,5,6,4))-0.204124145232*(D(3,7,6,5))-0.204124145232*(D(2,8,5,6))+0.204124145232*(D(5,8,7,3))+0.204124145232*(D(7,6,5,1))+0.204124145232*(D(2,8,7,6))
T2gCyBe001(Frozen) = 0.353553390593*(A(8,5,1))-0.353553390593*(A(5,1,2))+0.353553390593*(A(1,2,8))-0.353553390593*(A(2,8,5))-0.353553390593*(A(6,7,3))+0.353553390593*(A(7,3,4))-0.353553390593*(A(3,4,6))+0.353553390593*(A(4,6,7))
T2gCyBe002(Frozen) = 0.353553390593*(A(6,5,1))-0.353553390593*(A(5,1,4))+0.353553390593*(A(1,4,6))-0.353553390593*(A(4,6,5))+0.353553390593*(A(7,8,2))-0.353553390593*(A(8,2,3))+0.353553390593*(A(2,3,7))-0.353553390593*(A(3,7,8))
A2uCyBe001(Frozen) = 0.204124145232*(A(3,4,1))-0.204124145232*(A(4,1,2))+0.204124145232*(A(1,2,3))-0.204124145232*(A(2,3,4))+0.204124145232*(A(8,5,1))-0.204124145232*(A(5,1,2))+0.204124145232*(A(1,2,8))-0.204124145232*(A(2,8,5))+0.204124145232*(A(6,5,1))-0.204124145232*(A(5,1,4))+0.204124145232*(A(1,4,6))-0.204124145232*(A(4,6,5))-0.204124145232*(A(7,8,2))+0.204124145232*(A(8,2,3))-0.204124145232*(A(2,3,7))+0.204124145232*(A(3,7,8))+0.204124145232*(A(6,7,3))-0.204124145232*(A(7,3,4))+0.204124145232*(A(3,4,6))-0.204124145232*(A(4,6,7))-0.204124145232*(A(5,8,7))-0.204124145232*(A(7,6,5))+0.204124145232*(A(6,7,8))+0.204124145232*(A(8,5,6))
EuCyBe001(Frozen) = 0.288675134595*(A(3,4,1))-0.288675134595*(A(4,1,2))+0.288675134595*(A(1,2,3))-0.288675134595*(A(2,3,4))-0.144337567297*(A(8,5,1))+0.144337567297*(A(5,1,2))-0.144337567297*(A(1,2,8))+0.144337567297*(A(2,8,5))-0.144337567297*(A(6,5,1))+0.144337567297*(A(5,1,4))-0.144337567297*(A(1,4,6))+0.144337567297*(A(4,6,5))+0.144337567297*(A(7,8,2))-0.144337567297*(A(8,2,3))+0.144337567297*(A(2,3,7))-0.144337567297*(A(3,7,8))-0.144337567297*(A(6,7,3))+0.144337567297*(A(7,3,4))-0.144337567297*(A(3,4,6))+0.144337567297*(A(4,6,7))-0.288675134595*(A(5,8,7))-0.288675134595*(A(7,6,5))+0.288675134595*(A(6,7,8))+0.288675134595*(A(8,5,6))
EuCyBe002(Frozen) = 0.25*(A(8,5,1))-0.25*(A(5,1,2))+0.25*(A(1,2,8))-0.25*(A(2,8,5))-0.25*(A(6,5,1))+0.25*(A(5,1,4))-0.25*(A(1,4,6))+0.25*(A(4,6,5))+0.25*(A(7,8,2))-0.25*(A(8,2,3))+0.25*(A(2,3,7))-0.25*(A(3,7,8))+0.25*(A(6,7,3))-0.25*(A(7,3,4))+0.25*(A(3,4,6))-0.25*(A(4,6,7))
