# GNIC GAUSSIAN VOLT SYMM
#P HF/STO-3G OPT

SF6 octahedral template probe

0 1
S     0.000000     0.000000     0.000000
F     1.560000     0.000000     0.000000
F    -1.560000     0.000000     0.000000
F     0.000000     1.560000     0.000000
F     0.000000    -1.560000     0.000000
F     0.000000     0.000000     1.560000
F     0.000000     0.000000    -1.560000

